num_bands         =   28        
num_wann          =   18 

dis_win_min       = -8.0d0       
dis_win_max       = 70.0d0
dis_froz_min      = -8.0d0
dis_froz_max      =  30.0d0

dis_conv_window = 5
dis_conv_tol = 1e-12
dis_num_iter = 500000


num_iter          = 1000000
dis_mix_ratio = 1.0

conv_tol = 1E-10
conv_window = 5


spinors = t
begin projections
Fe: s;p;d
end projections

kpath = true
kpath_task = bands
kpath_bands_colour = spin
kpath_num_points=500
begin kpoint_path
G 0.0000 0.0000 0.0000   H 0.500 -0.5000 -0.5000
H 0.500 -0.5000 -0.5000  P 0.7500 0.2500 -0.2500
P 0.7500 0.2500 -0.2500  N 0.5000 0.0000 -0.5000
N 0.5000 0.0000 -0.5000  G 0.0000 0.0000 0.000
G 0.0000 0.0000 0.000    H 0.5 0.5 0.5
H 0.5 0.5 0.5            N 0.5 0.0 0.0
N 0.5 0.0 0.0            G 0.0 0.0 0.0
G 0.0 0.0 0.0            P 0.75 0.25 -0.25
P 0.75 0.25 -0.25        N 0.5 0.0 0.0
end kpoint_path

#kslice = true
#kslice_task = fermi\_lines
#kslice\_fermi\_level = 
#kslice_2dkmesh = 200 200
#kslice_corner = 0.0  0.0  0.0
#kslice_b1 =     0.5 -0.5 -0.5
#kslice_b2 =     0.5  0.5  0.5

begin unit_cell_cart
bohr
 2.71175  2.71175 2.71175
-2.71175  2.71175 2.71175
-2.71175 -2.71175 2.71175
end unit_cell_cart

begin atoms_frac
Fe  0.000  0.000  0.000
end atoms_frac

fermi_energy = 12.6291
hr_plot = true

mp_grid           = 2 2 2

# only few first kpoints provided in this benchmark file
begin kpoints
  0.00000000  0.00000000  0.00000000 
  0.00000000  0.00000000  0.06250000 
  0.00000000  0.00000000  0.12500000 
  0.00000000  0.00000000  0.18750000 
  0.00000000  0.00000000  0.25000000 
  0.00000000  0.00000000  0.31250000 
  0.00000000  0.00000000  0.37500000 
  0.00000000  0.00000000  0.43750000 
end kpoints
