num_bands         =   14     
num_wann          =   10 

dis_win_min       = 5.8120d0       
dis_win_max       = 21.8307d0
dis_conv_tol = 1e-12
dis_num_iter = 500000

num_iter          = 100000
dis_mix_ratio = 1.0

conv_tol = 1E-12
conv_window = 5


spinors = true
begin projections
Fe: d
end projections


hr_plot = true

fermi_energy = 12.6281



kpath = true
kpath_task = bands
kpath_bands_colour = spin
kpath_num_points=500
begin kpoint_path
G 0.0000 0.0000 0.0000   H 0.500 -0.5000 -0.5000
H 0.500 -0.5000 -0.5000  P 0.7500 0.2500 -0.2500
P 0.7500 0.2500 -0.2500  N 0.5000 0.0000 -0.5000
N 0.5000 0.0000 -0.5000  G 0.0000 0.0000 0.000
G 0.0000 0.0000 0.000    H 0.5 0.5 0.5
H 0.5 0.5 0.5            N 0.5 0.0 0.0
N 0.5 0.0 0.0            G 0.0 0.0 0.0
G 0.0 0.0 0.0            P 0.75 0.25 -0.25
P 0.75 0.25 -0.25        N 0.5 0.0 0.0
end kpoint_path

#kslice = true
#kslice_task = fermi\_lines
#kslice\_fermi\_level = 
#kslice_2dkmesh = 200 200
#kslice_corner = 0.0  0.0  0.0
#kslice_b1 =     0.5 -0.5 -0.5
#kslice_b2 =     0.5  0.5  0.5

begin unit_cell_cart
bohr
 2.71175  2.71175 2.71175
-2.71175  2.71175 2.71175
-2.71175 -2.71175 2.71175
end unit_cell_cart

begin atoms_frac
Fe  0.000  0.000  0.000
end atoms_frac

mp_grid           = 2 2 2


# only few first kpoints provided in this benchmark file
begin kpoints
  0.00000000  0.00000000  0.00000000 
  0.00000000  0.00000000  0.08333333 
  0.00000000  0.00000000  0.16666667 
  0.00000000  0.00000000  0.25000000 
  0.00000000  0.00000000  0.33333333 
  0.00000000  0.00000000  0.41666667 
  0.00000000  0.00000000  0.50000000 
  0.00000000  0.00000000  0.58333333  
end kpoints
